instances/knapsack/discrete/knapsack_130_9.lp
\ Model knapsack_130_9
\ LP format - for model browsing. Use MPS format to capture full model detail.
\ Signature: 0x8c644a484ac146d4
Minimize
  - 58 x[0] - 10 x[1] - 44 x[2] - 88 x[3] - x[4] - 65 x[5] - 13 x[6]
   - 35 x[7] - 50 x[8] - 18 x[9] - 63 x[10] - 51 x[11] - 87 x[12]
   - 34 x[13] - 11 x[14] - 12 x[15] - 54 x[16] - 86 x[17] - 86 x[18]
   - 85 x[19] - 45 x[20] - 51 x[21] - 72 x[22] - 88 x[23] - 81 x[24]
   - 62 x[25] - 20 x[26] - 59 x[27] - 70 x[28] - 16 x[29] - 41 x[30]
   - 16 x[31] - 32 x[32] - 3 x[33] - 55 x[34] - 69 x[35] - 21 x[36]
   - 71 x[37] - 26 x[38] - 75 x[39] - 68 x[40] - 9 x[41] - 69 x[42]
   - 35 x[43] - 6 x[44] - 67 x[45] - 12 x[46] - 68 x[47] - 56 x[48]
   - 29 x[49] - 71 x[50] - 42 x[51] - 7 x[52] - 21 x[53] - 8 x[54]
   - 14 x[55] - 86 x[56] - 28 x[57] - 68 x[58] - 47 x[59] - 56 x[60]
   - 22 x[61] - 73 x[62] - 49 x[63] - 10 x[64] - 33 x[65] - 53 x[66]
   - 29 x[67] - 56 x[68] - 69 x[69] - 49 x[70] - 47 x[71] - 13 x[72]
   - 69 x[73] - 86 x[74] - 66 x[75] - 70 x[76] - 81 x[77] - 100 x[78]
   - 11 x[79] - 79 x[80] - 18 x[81] - 25 x[82] - 66 x[83] - 29 x[84]
   - 68 x[85] - 58 x[86] - 87 x[87] - 72 x[88] - 42 x[89] - 98 x[90]
   - 17 x[91] - 81 x[92] - 36 x[93] - 12 x[94] - 14 x[95] - x[96]
   - 40 x[97] - 84 x[98] - 48 x[99] - 60 x[100] - 65 x[101] - 90 x[102]
   - 33 x[103] - 23 x[104] - 11 x[105] - 62 x[106] - 8 x[107] - 78 x[108]
   - 92 x[109] - 69 x[110] - 78 x[111] - 9 x[112] - 3 x[113] - 10 x[114]
   - 25 x[115] - 15 x[116] - 93 x[117] - 66 x[118] - 99 x[119] - 25 x[120]
   - 66 x[121] - 6 x[122] - 59 x[123] - 95 x[124] - 100 x[125] - 40 x[126]
   - 50 x[127] - 11 x[128] - 16 x[129]
Subject To
 primal_upper: 25 x[0] + 30 x[1] + 84 x[2] + 13 x[3] + 34 x[4] + 55 x[5]
   + 95 x[6] + 5 x[7] + 95 x[8] + 40 x[9] + 53 x[10] + 33 x[11] + 98 x[12]
   + 26 x[13] + 62 x[14] + 90 x[15] + 27 x[16] + 74 x[17] + 75 x[18]
   + 4 x[19] + 51 x[20] + 61 x[21] + 26 x[22] + 84 x[23] + 46 x[24]
   + 38 x[25] + 52 x[26] + 53 x[27] + 23 x[28] + 41 x[29] + 3 x[30]
   + 21 x[31] + 29 x[32] + 27 x[33] + 78 x[34] + 55 x[35] + 34 x[36]
   + 38 x[37] + 38 x[38] + 68 x[39] + 33 x[40] + 39 x[41] + 72 x[42]
   + 55 x[43] + 37 x[44] + 8 x[45] + 7 x[46] + 15 x[47] + 21 x[48]
   + 38 x[49] + 40 x[50] + 26 x[51] + 55 x[52] + 30 x[53] + 6 x[54]
   + 49 x[55] + 75 x[56] + 24 x[57] + 42 x[58] + 80 x[59] + 90 x[60]
   + 20 x[61] + 5 x[62] + 76 x[63] + 25 x[64] + 38 x[65] + 42 x[66]
   + 64 x[67] + 90 x[68] + 55 x[69] + 99 x[70] + 23 x[71] + 8 x[72]
   + 89 x[73] + 97 x[74] + 10 x[75] + 28 x[76] + 69 x[77] + 82 x[78]
   + 92 x[79] + 59 x[80] + 71 x[81] + 80 x[82] + 35 x[83] + 83 x[84]
   + 51 x[85] + 29 x[86] + 74 x[87] + 68 x[88] + 97 x[89] + 2 x[90]
   + 62 x[91] + 62 x[92] + 53 x[93] + 42 x[94] + 11 x[95] + 55 x[96]
   + 66 x[97] + 94 x[98] + 10 x[99] + 11 x[100] + 46 x[101] + 4 x[102]
   + 78 x[103] + 7 x[104] + 100 x[105] + 69 x[106] + 60 x[107] + 80 x[108]
   + 87 x[109] + 24 x[110] + 29 x[111] + 15 x[112] + 55 x[113] + 23 x[114]
   + 72 x[115] + 21 x[116] + 51 x[117] + 27 x[118] + 66 x[119] + 89 x[120]
   + 2 x[121] + 17 x[122] + 92 x[123] + 63 x[124] + 100 x[125] + 69 x[126]
   + 61 x[127] + 56 x[128] + 37 x[129] + 2.5 r[0] + 3 r[1] + 8.4 r[2]
   + 1.3 r[3] + 3.4 r[4] + 5.5 r[5] + 9.5 r[6] + 0.5 r[7] + 9.5 r[8]
   + 4 r[9] + 5.3 r[10] + 3.3 r[11] + 9.8 r[12] + 2.6 r[13] + 6.2 r[14]
   + 9 r[15] + 2.7 r[16] + 7.4 r[17] + 7.5 r[18] + 0.4 r[19] + 5.1 r[20]
   + 6.1 r[21] + 2.6 r[22] + 8.4 r[23] + 4.6 r[24] + 3.8 r[25] + 5.2 r[26]
   + 5.3 r[27] + 2.3 r[28] + 4.1 r[29] + 0.3 r[30] + 2.1 r[31] + 2.9 r[32]
   + 2.7 r[33] + 7.8 r[34] + 5.5 r[35] + 3.4 r[36] + 3.8 r[37] + 3.8 r[38]
   + 6.8 r[39] + 3.3 r[40] + 3.9 r[41] + 7.2 r[42] + 5.5 r[43] + 3.7 r[44]
   + 0.8 r[45] + 0.7 r[46] + 1.5 r[47] + 2.1 r[48] + 3.8 r[49] + 4 r[50]
   + 2.6 r[51] + 5.5 r[52] + 3 r[53] + 0.6 r[54] + 4.9 r[55] + 7.5 r[56]
   + 2.4 r[57] + 4.2 r[58] + 8 r[59] + 9 r[60] + 2 r[61] + 0.5 r[62]
   + 7.6 r[63] + 2.5 r[64] + 3.8 r[65] + 4.2 r[66] + 6.4 r[67] + 9 r[68]
   + 5.5 r[69] + 9.9 r[70] + 2.3 r[71] + 0.8 r[72] + 8.9 r[73] + 9.7 r[74]
   + r[75] + 2.8 r[76] + 6.9 r[77] + 8.2 r[78] + 9.2 r[79] + 5.9 r[80]
   + 7.1 r[81] + 8 r[82] + 3.5 r[83] + 8.3 r[84] + 5.1 r[85] + 2.9 r[86]
   + 7.4 r[87] + 6.8 r[88] + 9.7 r[89] + 0.2 r[90] + 6.2 r[91] + 6.2 r[92]
   + 5.3 r[93] + 4.2 r[94] + 1.1 r[95] + 5.5 r[96] + 6.6 r[97] + 9.4 r[98]
   + r[99] + 1.1 r[100] + 4.6 r[101] + 0.4 r[102] + 7.8 r[103] + 0.7 r[104]
   + 10 r[105] + 6.9 r[106] + 6 r[107] + 8 r[108] + 8.7 r[109] + 2.4 r[110]
   + 2.9 r[111] + 1.5 r[112] + 5.5 r[113] + 2.3 r[114] + 7.2 r[115]
   + 2.1 r[116] + 5.1 r[117] + 2.7 r[118] + 6.6 r[119] + 8.9 r[120]
   + 0.2 r[121] + 1.7 r[122] + 9.2 r[123] + 6.3 r[124] + 10 r[125]
   + 6.9 r[126] + 6.1 r[127] + 5.6 r[128] + 3.7 r[129] <= 605
 primal_lower: 3.731511103327393 x[0] + 3.627814520032975 x[1]
   + 2.274456421260537 x[2] + 1.463933330461284 x[3]
   + 3.89350512306167 x[4] + 1.108807776937055 x[5]
   + 3.856326905431771 x[6] + 1.927620553465563 x[7]
   + 2.939016852138238 x[8] + 2.223911346122292 x[9]
   + 3.553309865018587 x[10] + 1.327862065212196 x[11]
   + 2.709013952898113 x[12] + 2.889968325059649 x[13]
   + 2.189618603167101 x[14] + 3.599718482661891 x[15]
   + 2.501060490785575 x[16] + 2.911243546349065 x[17]
   + 2.67660622038307 x[18] + 4.762365140767206 x[19]
   + 2.982304404087738 x[20] + 4.114847083384269 x[21]
   + 0.5258119423438341 x[22] + 3.882193189196199 x[23]
   + 0.0256987859943003 x[24] + 4.754202535690205 x[25]
   + 3.038448738767352 x[26] + 4.201030756731355 x[27]
   + 1.599649450539828 x[28] + 4.679519902690325 x[29]
   + 0.2704173741542892 x[30] + 3.258217773064138 x[31]
   + 4.872435267469892 x[32] + 1.718251803448307 x[33]
   + 1.600340567411403 x[34] + 2.738748875036084 x[35]
   + 3.247362161447199 x[36] + 3.043089692532741 x[37]
   + 1.617447822199206 x[38] + 3.742407429907741 x[39]
   + 2.83906659086805 x[40] + 0.2554174228933357 x[41]
   + 4.587101817109652 x[42] + 1.49433052302633 x[43]
   + 0.5699642308468781 x[44] + 3.547627148910892 x[45]
   + 2.574461867565733 x[46] + 1.968551047509294 x[47]
   + 0.5494169169272907 x[48] + 0.0917569464153083 x[49]
   + 2.337356343570531 x[50] + 1.829712932060675 x[51]
   + 2.537975532546111 x[52] + 2.761144415591675 x[53]
   + 4.256089494433462 x[54] + 2.343913124733056 x[55]
   + 0.6619279640778757 x[56] + 4.723485354298896 x[57]
   + 0.6128985102748684 x[58] + 0.0744800632427518 x[59]
   + 2.809920663068407 x[60] + 0.345404907450881 x[61]
   + 0.2805627221708956 x[62] + 4.499387532874652 x[63]
   + 1.027298221850723 x[64] + 0.3174600914316739 x[65]
   + 0.9943886092646225 x[66] + 4.349236282156029 x[67]
   + 3.329531383292574 x[68] + 4.515564542247805 x[69]
   + 0.8277434418430589 x[70] + 3.240216237752346 x[71]
   + 3.93270443191997 x[72] + 2.183918589292947 x[73]
   + 2.098735256413106 x[74] + 0.8560143448304081 x[75]
   + 4.637273729273613 x[76] + 0.110734939174984 x[77]
   + 3.853042481359087 x[78] + 3.020690141421817 x[79]
   + 2.89276265300782 x[80] + 2.145288640416459 x[81]
   + 0.1088266808253026 x[82] + 1.417720421674766 x[83]
   + 4.230427581222638 x[84] + 3.355246758318657 x[85]
   + 0.3727991513335886 x[86] + 1.043231794900454 x[87]
   + 2.496489313110974 x[88] + 4.216596522199124 x[89]
   + 2.154928533299579 x[90] + 3.652460754891041 x[91]
   + 4.365182358503802 x[92] + 3.624394912708146 x[93]
   + 2.005701564706746 x[94] + 4.485911436251254 x[95]
   + 0.1425297705190643 x[96] + 3.755869888860861 x[97]
   + 2.85276529426283 x[98] + 0.0303668887008148 x[99]
   + 4.366738652076588 x[100] + 2.783238248903576 x[101]
   + 0.6007499959865488 x[102] + 2.57650777559202 x[103]
   + 4.882889821134217 x[104] + 1.362103985207527 x[105]
   + 0.5850795999550821 x[106] + 4.465434230333989 x[107]
   + 3.71990538936308 x[108] + 4.562128656960055 x[109]
   + 4.5351489950785 x[110] + 3.6682647604193 x[111]
   + 1.787530761615021 x[112] + 2.927980143779778 x[113]
   + 2.114923338530522 x[114] + 2.0975659065011 x[115]
   + 3.234235059494243 x[116] + 2.052637275120718 x[117]
   + 1.946086017506581 x[118] + 0.3565995499984475 x[119]
   + 1.721448760237749 x[120] + 2.519891795627591 x[121]
   + 2.714498078889142 x[122] + 4.560875226011635 x[123]
   + 4.102314124005218 x[124] + 4.519355420425532 x[125]
   + 4.430688591071787 x[126] + 1.186154808939601 x[127]
   + 2.816846021643733 x[128] + 3.455271448935617 x[129] + 53 u[0]
   + 41 u[1] + 55 u[2] + 20 u[3] + 45 u[4] + 43 u[5] + 34 u[6] + 97 u[7]
   + 34 u[8] + 55 u[9] + 29 u[10] + 52 u[11] + 9 u[12] + 29 u[13]
   + 90 u[14] + 94 u[15] + 78 u[16] + 29 u[17] + 30 u[18] + 91 u[19]
   + 78 u[20] + 49 u[21] + 33 u[22] + 28 u[23] + 98 u[24] + 57 u[25]
   + 63 u[26] + 77 u[27] + 75 u[28] + 52 u[29] + 67 u[30] + 61 u[31]
   + 85 u[32] + 70 u[33] + 77 u[34] + 14 u[35] + 77 u[36] + 14 u[37]
   + 45 u[38] + 32 u[39] + 56 u[40] + 87 u[41] + 99 u[42] + 87 u[43]
   + 96 u[44] + 28 u[45] + 67 u[46] + 59 u[47] + 8 u[48] + 21 u[49]
   + 4 u[50] + 29 u[51] + 54 u[52] + 81 u[53] + 42 u[54] + 37 u[55]
   + 66 u[56] + 8 u[57] + 5 u[58] + 99 u[59] + 14 u[60] + 52 u[61]
   + 97 u[62] + 36 u[63] + 65 u[64] + 93 u[65] + 58 u[66] + 32 u[67]
   + 61 u[68] + 39 u[69] + 23 u[70] + 91 u[71] + 3 u[72] + 92 u[73]
   + 69 u[74] + 6 u[75] + 20 u[76] + 76 u[77] + 18 u[78] + 52 u[79]
   + 3 u[80] + 71 u[81] + 92 u[82] + 27 u[83] + 19 u[84] + 35 u[85]
   + 57 u[86] + 29 u[87] + 71 u[88] + 36 u[89] + 6 u[90] + 14 u[91]
   + 42 u[92] + 53 u[93] + 85 u[94] + 90 u[95] + 70 u[96] + 66 u[97]
   + 5 u[98] + 53 u[99] + 62 u[100] + 81 u[101] + 95 u[102] + 49 u[103]
   + 30 u[104] + 55 u[105] + 28 u[106] + 40 u[107] + 92 u[108] + 74 u[109]
   + 56 u[110] + 20 u[111] + 18 u[112] + 50 u[113] + 14 u[114] + 60 u[115]
   + 100 u[116] + 62 u[117] + 18 u[118] + 26 u[119] + u[120] + 74 u[121]
   + 57 u[122] + 64 u[123] + 34 u[124] + 40 u[125] + 25 u[126] + 77 u[127]
   + 100 u[128] + 100 u[129] <= 4340
 mccormick1[0]: - u[0] + r[0] <= 0
 mccormick1[1]: - u[1] + r[1] <= 0
 mccormick1[2]: - u[2] + r[2] <= 0
 mccormick1[3]: - u[3] + r[3] <= 0
 mccormick1[4]: - u[4] + r[4] <= 0
 mccormick1[5]: - u[5] + r[5] <= 0
 mccormick1[6]: - u[6] + r[6] <= 0
 mccormick1[7]: - u[7] + r[7] <= 0
 mccormick1[8]: - u[8] + r[8] <= 0
 mccormick1[9]: - u[9] + r[9] <= 0
 mccormick1[10]: - u[10] + r[10] <= 0
 mccormick1[11]: - u[11] + r[11] <= 0
 mccormick1[12]: - u[12] + r[12] <= 0
 mccormick1[13]: - u[13] + r[13] <= 0
 mccormick1[14]: - u[14] + r[14] <= 0
 mccormick1[15]: - u[15] + r[15] <= 0
 mccormick1[16]: - u[16] + r[16] <= 0
 mccormick1[17]: - u[17] + r[17] <= 0
 mccormick1[18]: - u[18] + r[18] <= 0
 mccormick1[19]: - u[19] + r[19] <= 0
 mccormick1[20]: - u[20] + r[20] <= 0
 mccormick1[21]: - u[21] + r[21] <= 0
 mccormick1[22]: - u[22] + r[22] <= 0
 mccormick1[23]: - u[23] + r[23] <= 0
 mccormick1[24]: - u[24] + r[24] <= 0
 mccormick1[25]: - u[25] + r[25] <= 0
 mccormick1[26]: - u[26] + r[26] <= 0
 mccormick1[27]: - u[27] + r[27] <= 0
 mccormick1[28]: - u[28] + r[28] <= 0
 mccormick1[29]: - u[29] + r[29] <= 0
 mccormick1[30]: - u[30] + r[30] <= 0
 mccormick1[31]: - u[31] + r[31] <= 0
 mccormick1[32]: - u[32] + r[32] <= 0
 mccormick1[33]: - u[33] + r[33] <= 0
 mccormick1[34]: - u[34] + r[34] <= 0
 mccormick1[35]: - u[35] + r[35] <= 0
 mccormick1[36]: - u[36] + r[36] <= 0
 mccormick1[37]: - u[37] + r[37] <= 0
 mccormick1[38]: - u[38] + r[38] <= 0
 mccormick1[39]: - u[39] + r[39] <= 0
 mccormick1[40]: - u[40] + r[40] <= 0
 mccormick1[41]: - u[41] + r[41] <= 0
 mccormick1[42]: - u[42] + r[42] <= 0
 mccormick1[43]: - u[43] + r[43] <= 0
 mccormick1[44]: - u[44] + r[44] <= 0
 mccormick1[45]: - u[45] + r[45] <= 0
 mccormick1[46]: - u[46] + r[46] <= 0
 mccormick1[47]: - u[47] + r[47] <= 0
 mccormick1[48]: - u[48] + r[48] <= 0
 mccormick1[49]: - u[49] + r[49] <= 0
 mccormick1[50]: - u[50] + r[50] <= 0
 mccormick1[51]: - u[51] + r[51] <= 0
 mccormick1[52]: - u[52] + r[52] <= 0
 mccormick1[53]: - u[53] + r[53] <= 0
 mccormick1[54]: - u[54] + r[54] <= 0
 mccormick1[55]: - u[55] + r[55] <= 0
 mccormick1[56]: - u[56] + r[56] <= 0
 mccormick1[57]: - u[57] + r[57] <= 0
 mccormick1[58]: - u[58] + r[58] <= 0
 mccormick1[59]: - u[59] + r[59] <= 0
 mccormick1[60]: - u[60] + r[60] <= 0
 mccormick1[61]: - u[61] + r[61] <= 0
 mccormick1[62]: - u[62] + r[62] <= 0
 mccormick1[63]: - u[63] + r[63] <= 0
 mccormick1[64]: - u[64] + r[64] <= 0
 mccormick1[65]: - u[65] + r[65] <= 0
 mccormick1[66]: - u[66] + r[66] <= 0
 mccormick1[67]: - u[67] + r[67] <= 0
 mccormick1[68]: - u[68] + r[68] <= 0
 mccormick1[69]: - u[69] + r[69] <= 0
 mccormick1[70]: - u[70] + r[70] <= 0
 mccormick1[71]: - u[71] + r[71] <= 0
 mccormick1[72]: - u[72] + r[72] <= 0
 mccormick1[73]: - u[73] + r[73] <= 0
 mccormick1[74]: - u[74] + r[74] <= 0
 mccormick1[75]: - u[75] + r[75] <= 0
 mccormick1[76]: - u[76] + r[76] <= 0
 mccormick1[77]: - u[77] + r[77] <= 0
 mccormick1[78]: - u[78] + r[78] <= 0
 mccormick1[79]: - u[79] + r[79] <= 0
 mccormick1[80]: - u[80] + r[80] <= 0
 mccormick1[81]: - u[81] + r[81] <= 0
 mccormick1[82]: - u[82] + r[82] <= 0
 mccormick1[83]: - u[83] + r[83] <= 0
 mccormick1[84]: - u[84] + r[84] <= 0
 mccormick1[85]: - u[85] + r[85] <= 0
 mccormick1[86]: - u[86] + r[86] <= 0
 mccormick1[87]: - u[87] + r[87] <= 0
 mccormick1[88]: - u[88] + r[88] <= 0
 mccormick1[89]: - u[89] + r[89] <= 0
 mccormick1[90]: - u[90] + r[90] <= 0
 mccormick1[91]: - u[91] + r[91] <= 0
 mccormick1[92]: - u[92] + r[92] <= 0
 mccormick1[93]: - u[93] + r[93] <= 0
 mccormick1[94]: - u[94] + r[94] <= 0
 mccormick1[95]: - u[95] + r[95] <= 0
 mccormick1[96]: - u[96] + r[96] <= 0
 mccormick1[97]: - u[97] + r[97] <= 0
 mccormick1[98]: - u[98] + r[98] <= 0
 mccormick1[99]: - u[99] + r[99] <= 0
 mccormick1[100]: - u[100] + r[100] <= 0
 mccormick1[101]: - u[101] + r[101] <= 0
 mccormick1[102]: - u[102] + r[102] <= 0
 mccormick1[103]: - u[103] + r[103] <= 0
 mccormick1[104]: - u[104] + r[104] <= 0
 mccormick1[105]: - u[105] + r[105] <= 0
 mccormick1[106]: - u[106] + r[106] <= 0
 mccormick1[107]: - u[107] + r[107] <= 0
 mccormick1[108]: - u[108] + r[108] <= 0
 mccormick1[109]: - u[109] + r[109] <= 0
 mccormick1[110]: - u[110] + r[110] <= 0
 mccormick1[111]: - u[111] + r[111] <= 0
 mccormick1[112]: - u[112] + r[112] <= 0
 mccormick1[113]: - u[113] + r[113] <= 0
 mccormick1[114]: - u[114] + r[114] <= 0
 mccormick1[115]: - u[115] + r[115] <= 0
 mccormick1[116]: - u[116] + r[116] <= 0
 mccormick1[117]: - u[117] + r[117] <= 0
 mccormick1[118]: - u[118] + r[118] <= 0
 mccormick1[119]: - u[119] + r[119] <= 0
 mccormick1[120]: - u[120] + r[120] <= 0
 mccormick1[121]: - u[121] + r[121] <= 0
 mccormick1[122]: - u[122] + r[122] <= 0
 mccormick1[123]: - u[123] + r[123] <= 0
 mccormick1[124]: - u[124] + r[124] <= 0
 mccormick1[125]: - u[125] + r[125] <= 0
 mccormick1[126]: - u[126] + r[126] <= 0
 mccormick1[127]: - u[127] + r[127] <= 0
 mccormick1[128]: - u[128] + r[128] <= 0
 mccormick1[129]: - u[129] + r[129] <= 0
 mccormick2[0]: - x[0] + r[0] <= 0
 mccormick2[1]: - x[1] + r[1] <= 0
 mccormick2[2]: - x[2] + r[2] <= 0
 mccormick2[3]: - x[3] + r[3] <= 0
 mccormick2[4]: - x[4] + r[4] <= 0
 mccormick2[5]: - x[5] + r[5] <= 0
 mccormick2[6]: - x[6] + r[6] <= 0
 mccormick2[7]: - x[7] + r[7] <= 0
 mccormick2[8]: - x[8] + r[8] <= 0
 mccormick2[9]: - x[9] + r[9] <= 0
 mccormick2[10]: - x[10] + r[10] <= 0
 mccormick2[11]: - x[11] + r[11] <= 0
 mccormick2[12]: - x[12] + r[12] <= 0
 mccormick2[13]: - x[13] + r[13] <= 0
 mccormick2[14]: - x[14] + r[14] <= 0
 mccormick2[15]: - x[15] + r[15] <= 0
 mccormick2[16]: - x[16] + r[16] <= 0
 mccormick2[17]: - x[17] + r[17] <= 0
 mccormick2[18]: - x[18] + r[18] <= 0
 mccormick2[19]: - x[19] + r[19] <= 0
 mccormick2[20]: - x[20] + r[20] <= 0
 mccormick2[21]: - x[21] + r[21] <= 0
 mccormick2[22]: - x[22] + r[22] <= 0
 mccormick2[23]: - x[23] + r[23] <= 0
 mccormick2[24]: - x[24] + r[24] <= 0
 mccormick2[25]: - x[25] + r[25] <= 0
 mccormick2[26]: - x[26] + r[26] <= 0
 mccormick2[27]: - x[27] + r[27] <= 0
 mccormick2[28]: - x[28] + r[28] <= 0
 mccormick2[29]: - x[29] + r[29] <= 0
 mccormick2[30]: - x[30] + r[30] <= 0
 mccormick2[31]: - x[31] + r[31] <= 0
 mccormick2[32]: - x[32] + r[32] <= 0
 mccormick2[33]: - x[33] + r[33] <= 0
 mccormick2[34]: - x[34] + r[34] <= 0
 mccormick2[35]: - x[35] + r[35] <= 0
 mccormick2[36]: - x[36] + r[36] <= 0
 mccormick2[37]: - x[37] + r[37] <= 0
 mccormick2[38]: - x[38] + r[38] <= 0
 mccormick2[39]: - x[39] + r[39] <= 0
 mccormick2[40]: - x[40] + r[40] <= 0
 mccormick2[41]: - x[41] + r[41] <= 0
 mccormick2[42]: - x[42] + r[42] <= 0
 mccormick2[43]: - x[43] + r[43] <= 0
 mccormick2[44]: - x[44] + r[44] <= 0
 mccormick2[45]: - x[45] + r[45] <= 0
 mccormick2[46]: - x[46] + r[46] <= 0
 mccormick2[47]: - x[47] + r[47] <= 0
 mccormick2[48]: - x[48] + r[48] <= 0
 mccormick2[49]: - x[49] + r[49] <= 0
 mccormick2[50]: - x[50] + r[50] <= 0
 mccormick2[51]: - x[51] + r[51] <= 0
 mccormick2[52]: - x[52] + r[52] <= 0
 mccormick2[53]: - x[53] + r[53] <= 0
 mccormick2[54]: - x[54] + r[54] <= 0
 mccormick2[55]: - x[55] + r[55] <= 0
 mccormick2[56]: - x[56] + r[56] <= 0
 mccormick2[57]: - x[57] + r[57] <= 0
 mccormick2[58]: - x[58] + r[58] <= 0
 mccormick2[59]: - x[59] + r[59] <= 0
 mccormick2[60]: - x[60] + r[60] <= 0
 mccormick2[61]: - x[61] + r[61] <= 0
 mccormick2[62]: - x[62] + r[62] <= 0
 mccormick2[63]: - x[63] + r[63] <= 0
 mccormick2[64]: - x[64] + r[64] <= 0
 mccormick2[65]: - x[65] + r[65] <= 0
 mccormick2[66]: - x[66] + r[66] <= 0
 mccormick2[67]: - x[67] + r[67] <= 0
 mccormick2[68]: - x[68] + r[68] <= 0
 mccormick2[69]: - x[69] + r[69] <= 0
 mccormick2[70]: - x[70] + r[70] <= 0
 mccormick2[71]: - x[71] + r[71] <= 0
 mccormick2[72]: - x[72] + r[72] <= 0
 mccormick2[73]: - x[73] + r[73] <= 0
 mccormick2[74]: - x[74] + r[74] <= 0
 mccormick2[75]: - x[75] + r[75] <= 0
 mccormick2[76]: - x[76] + r[76] <= 0
 mccormick2[77]: - x[77] + r[77] <= 0
 mccormick2[78]: - x[78] + r[78] <= 0
 mccormick2[79]: - x[79] + r[79] <= 0
 mccormick2[80]: - x[80] + r[80] <= 0
 mccormick2[81]: - x[81] + r[81] <= 0
 mccormick2[82]: - x[82] + r[82] <= 0
 mccormick2[83]: - x[83] + r[83] <= 0
 mccormick2[84]: - x[84] + r[84] <= 0
 mccormick2[85]: - x[85] + r[85] <= 0
 mccormick2[86]: - x[86] + r[86] <= 0
 mccormick2[87]: - x[87] + r[87] <= 0
 mccormick2[88]: - x[88] + r[88] <= 0
 mccormick2[89]: - x[89] + r[89] <= 0
 mccormick2[90]: - x[90] + r[90] <= 0
 mccormick2[91]: - x[91] + r[91] <= 0
 mccormick2[92]: - x[92] + r[92] <= 0
 mccormick2[93]: - x[93] + r[93] <= 0
 mccormick2[94]: - x[94] + r[94] <= 0
 mccormick2[95]: - x[95] + r[95] <= 0
 mccormick2[96]: - x[96] + r[96] <= 0
 mccormick2[97]: - x[97] + r[97] <= 0
 mccormick2[98]: - x[98] + r[98] <= 0
 mccormick2[99]: - x[99] + r[99] <= 0
 mccormick2[100]: - x[100] + r[100] <= 0
 mccormick2[101]: - x[101] + r[101] <= 0
 mccormick2[102]: - x[102] + r[102] <= 0
 mccormick2[103]: - x[103] + r[103] <= 0
 mccormick2[104]: - x[104] + r[104] <= 0
 mccormick2[105]: - x[105] + r[105] <= 0
 mccormick2[106]: - x[106] + r[106] <= 0
 mccormick2[107]: - x[107] + r[107] <= 0
 mccormick2[108]: - x[108] + r[108] <= 0
 mccormick2[109]: - x[109] + r[109] <= 0
 mccormick2[110]: - x[110] + r[110] <= 0
 mccormick2[111]: - x[111] + r[111] <= 0
 mccormick2[112]: - x[112] + r[112] <= 0
 mccormick2[113]: - x[113] + r[113] <= 0
 mccormick2[114]: - x[114] + r[114] <= 0
 mccormick2[115]: - x[115] + r[115] <= 0
 mccormick2[116]: - x[116] + r[116] <= 0
 mccormick2[117]: - x[117] + r[117] <= 0
 mccormick2[118]: - x[118] + r[118] <= 0
 mccormick2[119]: - x[119] + r[119] <= 0
 mccormick2[120]: - x[120] + r[120] <= 0
 mccormick2[121]: - x[121] + r[121] <= 0
 mccormick2[122]: - x[122] + r[122] <= 0
 mccormick2[123]: - x[123] + r[123] <= 0
 mccormick2[124]: - x[124] + r[124] <= 0
 mccormick2[125]: - x[125] + r[125] <= 0
 mccormick2[126]: - x[126] + r[126] <= 0
 mccormick2[127]: - x[127] + r[127] <= 0
 mccormick2[128]: - x[128] + r[128] <= 0
 mccormick2[129]: - x[129] + r[129] <= 0
 mccormick3[0]: x[0] + u[0] - r[0] <= 1
 mccormick3[1]: x[1] + u[1] - r[1] <= 1
 mccormick3[2]: x[2] + u[2] - r[2] <= 1
 mccormick3[3]: x[3] + u[3] - r[3] <= 1
 mccormick3[4]: x[4] + u[4] - r[4] <= 1
 mccormick3[5]: x[5] + u[5] - r[5] <= 1
 mccormick3[6]: x[6] + u[6] - r[6] <= 1
 mccormick3[7]: x[7] + u[7] - r[7] <= 1
 mccormick3[8]: x[8] + u[8] - r[8] <= 1
 mccormick3[9]: x[9] + u[9] - r[9] <= 1
 mccormick3[10]: x[10] + u[10] - r[10] <= 1
 mccormick3[11]: x[11] + u[11] - r[11] <= 1
 mccormick3[12]: x[12] + u[12] - r[12] <= 1
 mccormick3[13]: x[13] + u[13] - r[13] <= 1
 mccormick3[14]: x[14] + u[14] - r[14] <= 1
 mccormick3[15]: x[15] + u[15] - r[15] <= 1
 mccormick3[16]: x[16] + u[16] - r[16] <= 1
 mccormick3[17]: x[17] + u[17] - r[17] <= 1
 mccormick3[18]: x[18] + u[18] - r[18] <= 1
 mccormick3[19]: x[19] + u[19] - r[19] <= 1
 mccormick3[20]: x[20] + u[20] - r[20] <= 1
 mccormick3[21]: x[21] + u[21] - r[21] <= 1
 mccormick3[22]: x[22] + u[22] - r[22] <= 1
 mccormick3[23]: x[23] + u[23] - r[23] <= 1
 mccormick3[24]: x[24] + u[24] - r[24] <= 1
 mccormick3[25]: x[25] + u[25] - r[25] <= 1
 mccormick3[26]: x[26] + u[26] - r[26] <= 1
 mccormick3[27]: x[27] + u[27] - r[27] <= 1
 mccormick3[28]: x[28] + u[28] - r[28] <= 1
 mccormick3[29]: x[29] + u[29] - r[29] <= 1
 mccormick3[30]: x[30] + u[30] - r[30] <= 1
 mccormick3[31]: x[31] + u[31] - r[31] <= 1
 mccormick3[32]: x[32] + u[32] - r[32] <= 1
 mccormick3[33]: x[33] + u[33] - r[33] <= 1
 mccormick3[34]: x[34] + u[34] - r[34] <= 1
 mccormick3[35]: x[35] + u[35] - r[35] <= 1
 mccormick3[36]: x[36] + u[36] - r[36] <= 1
 mccormick3[37]: x[37] + u[37] - r[37] <= 1
 mccormick3[38]: x[38] + u[38] - r[38] <= 1
 mccormick3[39]: x[39] + u[39] - r[39] <= 1
 mccormick3[40]: x[40] + u[40] - r[40] <= 1
 mccormick3[41]: x[41] + u[41] - r[41] <= 1
 mccormick3[42]: x[42] + u[42] - r[42] <= 1
 mccormick3[43]: x[43] + u[43] - r[43] <= 1
 mccormick3[44]: x[44] + u[44] - r[44] <= 1
 mccormick3[45]: x[45] + u[45] - r[45] <= 1
 mccormick3[46]: x[46] + u[46] - r[46] <= 1
 mccormick3[47]: x[47] + u[47] - r[47] <= 1
 mccormick3[48]: x[48] + u[48] - r[48] <= 1
 mccormick3[49]: x[49] + u[49] - r[49] <= 1
 mccormick3[50]: x[50] + u[50] - r[50] <= 1
 mccormick3[51]: x[51] + u[51] - r[51] <= 1
 mccormick3[52]: x[52] + u[52] - r[52] <= 1
 mccormick3[53]: x[53] + u[53] - r[53] <= 1
 mccormick3[54]: x[54] + u[54] - r[54] <= 1
 mccormick3[55]: x[55] + u[55] - r[55] <= 1
 mccormick3[56]: x[56] + u[56] - r[56] <= 1
 mccormick3[57]: x[57] + u[57] - r[57] <= 1
 mccormick3[58]: x[58] + u[58] - r[58] <= 1
 mccormick3[59]: x[59] + u[59] - r[59] <= 1
 mccormick3[60]: x[60] + u[60] - r[60] <= 1
 mccormick3[61]: x[61] + u[61] - r[61] <= 1
 mccormick3[62]: x[62] + u[62] - r[62] <= 1
 mccormick3[63]: x[63] + u[63] - r[63] <= 1
 mccormick3[64]: x[64] + u[64] - r[64] <= 1
 mccormick3[65]: x[65] + u[65] - r[65] <= 1
 mccormick3[66]: x[66] + u[66] - r[66] <= 1
 mccormick3[67]: x[67] + u[67] - r[67] <= 1
 mccormick3[68]: x[68] + u[68] - r[68] <= 1
 mccormick3[69]: x[69] + u[69] - r[69] <= 1
 mccormick3[70]: x[70] + u[70] - r[70] <= 1
 mccormick3[71]: x[71] + u[71] - r[71] <= 1
 mccormick3[72]: x[72] + u[72] - r[72] <= 1
 mccormick3[73]: x[73] + u[73] - r[73] <= 1
 mccormick3[74]: x[74] + u[74] - r[74] <= 1
 mccormick3[75]: x[75] + u[75] - r[75] <= 1
 mccormick3[76]: x[76] + u[76] - r[76] <= 1
 mccormick3[77]: x[77] + u[77] - r[77] <= 1
 mccormick3[78]: x[78] + u[78] - r[78] <= 1
 mccormick3[79]: x[79] + u[79] - r[79] <= 1
 mccormick3[80]: x[80] + u[80] - r[80] <= 1
 mccormick3[81]: x[81] + u[81] - r[81] <= 1
 mccormick3[82]: x[82] + u[82] - r[82] <= 1
 mccormick3[83]: x[83] + u[83] - r[83] <= 1
 mccormick3[84]: x[84] + u[84] - r[84] <= 1
 mccormick3[85]: x[85] + u[85] - r[85] <= 1
 mccormick3[86]: x[86] + u[86] - r[86] <= 1
 mccormick3[87]: x[87] + u[87] - r[87] <= 1
 mccormick3[88]: x[88] + u[88] - r[88] <= 1
 mccormick3[89]: x[89] + u[89] - r[89] <= 1
 mccormick3[90]: x[90] + u[90] - r[90] <= 1
 mccormick3[91]: x[91] + u[91] - r[91] <= 1
 mccormick3[92]: x[92] + u[92] - r[92] <= 1
 mccormick3[93]: x[93] + u[93] - r[93] <= 1
 mccormick3[94]: x[94] + u[94] - r[94] <= 1
 mccormick3[95]: x[95] + u[95] - r[95] <= 1
 mccormick3[96]: x[96] + u[96] - r[96] <= 1
 mccormick3[97]: x[97] + u[97] - r[97] <= 1
 mccormick3[98]: x[98] + u[98] - r[98] <= 1
 mccormick3[99]: x[99] + u[99] - r[99] <= 1
 mccormick3[100]: x[100] + u[100] - r[100] <= 1
 mccormick3[101]: x[101] + u[101] - r[101] <= 1
 mccormick3[102]: x[102] + u[102] - r[102] <= 1
 mccormick3[103]: x[103] + u[103] - r[103] <= 1
 mccormick3[104]: x[104] + u[104] - r[104] <= 1
 mccormick3[105]: x[105] + u[105] - r[105] <= 1
 mccormick3[106]: x[106] + u[106] - r[106] <= 1
 mccormick3[107]: x[107] + u[107] - r[107] <= 1
 mccormick3[108]: x[108] + u[108] - r[108] <= 1
 mccormick3[109]: x[109] + u[109] - r[109] <= 1
 mccormick3[110]: x[110] + u[110] - r[110] <= 1
 mccormick3[111]: x[111] + u[111] - r[111] <= 1
 mccormick3[112]: x[112] + u[112] - r[112] <= 1
 mccormick3[113]: x[113] + u[113] - r[113] <= 1
 mccormick3[114]: x[114] + u[114] - r[114] <= 1
 mccormick3[115]: x[115] + u[115] - r[115] <= 1
 mccormick3[116]: x[116] + u[116] - r[116] <= 1
 mccormick3[117]: x[117] + u[117] - r[117] <= 1
 mccormick3[118]: x[118] + u[118] - r[118] <= 1
 mccormick3[119]: x[119] + u[119] - r[119] <= 1
 mccormick3[120]: x[120] + u[120] - r[120] <= 1
 mccormick3[121]: x[121] + u[121] - r[121] <= 1
 mccormick3[122]: x[122] + u[122] - r[122] <= 1
 mccormick3[123]: x[123] + u[123] - r[123] <= 1
 mccormick3[124]: x[124] + u[124] - r[124] <= 1
 mccormick3[125]: x[125] + u[125] - r[125] <= 1
 mccormick3[126]: x[126] + u[126] - r[126] <= 1
 mccormick3[127]: x[127] + u[127] - r[127] <= 1
 mccormick3[128]: x[128] + u[128] - r[128] <= 1
 mccormick3[129]: x[129] + u[129] - r[129] <= 1
Bounds
Binaries
 x[0] x[1] x[2] x[3] x[4] x[5] x[6] x[7] x[8] x[9] x[10] x[11] x[12] x[13]
 x[14] x[15] x[16] x[17] x[18] x[19] x[20] x[21] x[22] x[23] x[24] x[25]
 x[26] x[27] x[28] x[29] x[30] x[31] x[32] x[33] x[34] x[35] x[36] x[37]
 x[38] x[39] x[40] x[41] x[42] x[43] x[44] x[45] x[46] x[47] x[48] x[49]
 x[50] x[51] x[52] x[53] x[54] x[55] x[56] x[57] x[58] x[59] x[60] x[61]
 x[62] x[63] x[64] x[65] x[66] x[67] x[68] x[69] x[70] x[71] x[72] x[73]
 x[74] x[75] x[76] x[77] x[78] x[79] x[80] x[81] x[82] x[83] x[84] x[85]
 x[86] x[87] x[88] x[89] x[90] x[91] x[92] x[93] x[94] x[95] x[96] x[97]
 x[98] x[99] x[100] x[101] x[102] x[103] x[104] x[105] x[106] x[107] x[108]
 x[109] x[110] x[111] x[112] x[113] x[114] x[115] x[116] x[117] x[118]
 x[119] x[120] x[121] x[122] x[123] x[124] x[125] x[126] x[127] x[128]
 x[129] u[0] u[1] u[2] u[3] u[4] u[5] u[6] u[7] u[8] u[9] u[10] u[11] u[12]
 u[13] u[14] u[15] u[16] u[17] u[18] u[19] u[20] u[21] u[22] u[23] u[24]
 u[25] u[26] u[27] u[28] u[29] u[30] u[31] u[32] u[33] u[34] u[35] u[36]
 u[37] u[38] u[39] u[40] u[41] u[42] u[43] u[44] u[45] u[46] u[47] u[48]
 u[49] u[50] u[51] u[52] u[53] u[54] u[55] u[56] u[57] u[58] u[59] u[60]
 u[61] u[62] u[63] u[64] u[65] u[66] u[67] u[68] u[69] u[70] u[71] u[72]
 u[73] u[74] u[75] u[76] u[77] u[78] u[79] u[80] u[81] u[82] u[83] u[84]
 u[85] u[86] u[87] u[88] u[89] u[90] u[91] u[92] u[93] u[94] u[95] u[96]
 u[97] u[98] u[99] u[100] u[101] u[102] u[103] u[104] u[105] u[106] u[107]
 u[108] u[109] u[110] u[111] u[112] u[113] u[114] u[115] u[116] u[117]
 u[118] u[119] u[120] u[121] u[122] u[123] u[124] u[125] u[126] u[127]
 u[128] u[129] r[0] r[1] r[2] r[3] r[4] r[5] r[6] r[7] r[8] r[9] r[10]
 r[11] r[12] r[13] r[14] r[15] r[16] r[17] r[18] r[19] r[20] r[21] r[22]
 r[23] r[24] r[25] r[26] r[27] r[28] r[29] r[30] r[31] r[32] r[33] r[34]
 r[35] r[36] r[37] r[38] r[39] r[40] r[41] r[42] r[43] r[44] r[45] r[46]
 r[47] r[48] r[49] r[50] r[51] r[52] r[53] r[54] r[55] r[56] r[57] r[58]
 r[59] r[60] r[61] r[62] r[63] r[64] r[65] r[66] r[67] r[68] r[69] r[70]
 r[71] r[72] r[73] r[74] r[75] r[76] r[77] r[78] r[79] r[80] r[81] r[82]
 r[83] r[84] r[85] r[86] r[87] r[88] r[89] r[90] r[91] r[92] r[93] r[94]
 r[95] r[96] r[97] r[98] r[99] r[100] r[101] r[102] r[103] r[104] r[105]
 r[106] r[107] r[108] r[109] r[110] r[111] r[112] r[113] r[114] r[115]
 r[116] r[117] r[118] r[119] r[120] r[121] r[122] r[123] r[124] r[125]
 r[126] r[127] r[128] r[129]
End
