instances/knapsack/discrete_knapsack_uncertainty/knapsack_130_9.kp
17625
130
605

25 2.5 58
30 3.0 10
84 8.4 44
13 1.3 88
34 3.4 1
55 5.5 65
95 9.5 13
5 0.5 35
95 9.5 50
40 4.0 18
53 5.3 63
33 3.3 51
98 9.8 87
26 2.6 34
62 6.2 11
90 9.0 12
27 2.7 54
74 7.4 86
75 7.5 86
4 0.4 85
51 5.1 45
61 6.1 51
26 2.6 72
84 8.4 88
46 4.6 81
38 3.8 62
52 5.2 20
53 5.3 59
23 2.3 70
41 4.1 16
3 0.3 41
21 2.1 16
29 2.9 32
27 2.7 3
78 7.8 55
55 5.5 69
34 3.4 21
38 3.8 71
38 3.8 26
68 6.8 75
33 3.3 68
39 3.9 9
72 7.2 69
55 5.5 35
37 3.7 6
8 0.8 67
7 0.7 12
15 1.5 68
21 2.1 56
38 3.8 29
40 4.0 71
26 2.6 42
55 5.5 7
30 3.0 21
6 0.6 8
49 4.9 14
75 7.5 86
24 2.4 28
42 4.2 68
80 8.0 47
90 9.0 56
20 2.0 22
5 0.5 73
76 7.6 49
25 2.5 10
38 3.8 33
42 4.2 53
64 6.4 29
90 9.0 56
55 5.5 69
99 9.9 49
23 2.3 47
8 0.8 13
89 8.9 69
97 9.7 86
10 1.0 66
28 2.8 70
69 6.9 81
82 8.2 100
92 9.2 11
59 5.9 79
71 7.1 18
80 8.0 25
35 3.5 66
83 8.3 29
51 5.1 68
29 2.9 58
74 7.4 87
68 6.8 72
97 9.7 42
2 0.2 98
62 6.2 17
62 6.2 81
53 5.3 36
42 4.2 12
11 1.1 14
55 5.5 1
66 6.6 40
94 9.4 84
10 1.0 48
11 1.1 60
46 4.6 65
4 0.4 90
78 7.8 33
7 0.7 23
100 10.0 11
69 6.9 62
60 6.0 8
80 8.0 78
87 8.7 92
24 2.4 69
29 2.9 78
15 1.5 9
55 5.5 3
23 2.3 10
72 7.2 25
21 2.1 15
51 5.1 93
27 2.7 66
66 6.6 99
89 8.9 25
2 0.2 66
17 1.7 6
92 9.2 59
63 6.3 95
100 10.0 100
69 6.9 40
61 6.1 50
56 5.6 11
37 3.7 16

4340
639

[3.731511103327393 3.6278145200329748 2.2744564212605374 1.4639333304612845 3.8935051230616704 1.1088077769370552 3.8563269054317715 1.9276205534655633 2.9390168521382383 2.223911346122292 3.5533098650185866 1.3278620652121964 2.709013952898113 2.8899683250596486 2.1896186031671014 3.599718482661891 2.5010604907855747 2.9112435463490653 2.67660622038307 4.762365140767206 2.9823044040877376 4.114847083384269 0.5258119423438341 3.8821931891961987 0.025698785994300328 4.754202535690205 3.0384487387673524 4.201030756731355 1.5996494505398275 4.679519902690325 0.2704173741542892 3.2582177730641377 4.872435267469892 1.7182518034483074 1.6003405674114028 2.7387488750360838 3.247362161447199 3.0430896925327406 1.6174478221992061 3.7424074299077406 2.8390665908680504 0.2554174228933357 4.587101817109652 1.4943305230263295 0.5699642308468781 3.5476271489108924 2.574461867565733 1.9685510475092936 0.5494169169272907 0.09175694641530828 2.337356343570531 1.8297129320606753 2.5379755325461106 2.7611444155916747 4.256089494433462 2.3439131247330565 0.6619279640778757 4.723485354298896 0.6128985102748684 0.0744800632427518 2.809920663068407 0.345404907450881 0.2805627221708956 4.4993875328746515 1.0272982218507225 0.31746009143167386 0.9943886092646225 4.349236282156029 3.329531383292574 4.515564542247805 0.8277434418430589 3.2402162377523456 3.9327044319199698 2.183918589292947 2.098735256413106 0.8560143448304081 4.637273729273613 0.11073493917498402 3.8530424813590867 3.0206901414218166 2.8927626530078197 2.145288640416459 0.1088266808253026 1.4177204216747663 4.230427581222638 3.3552467583186574 0.3727991513335886 1.0432317949004537 2.4964893131109744 4.216596522199124 2.154928533299579 3.6524607548910413 4.365182358503802 3.6243949127081456 2.0057015647067455 4.485911436251254 0.14252977051906432 3.7558698888608606 2.85276529426283 0.030366888700814793 4.366738652076588 2.783238248903576 0.6007499959865488 2.57650777559202 4.882889821134217 1.3621039852075272 0.5850795999550821 4.465434230333989 3.71990538936308 4.562128656960055 4.5351489950785 3.6682647604193 1.787530761615021 2.927980143779778 2.1149233385305215 2.0975659065011 3.2342350594942433 2.052637275120718 1.9460860175065813 0.35659954999844745 1.7214487602377488 2.519891795627591 2.714498078889142 4.5608752260116345 4.102314124005218 4.519355420425532 4.430688591071787 1.1861548089396006 2.8168460216437325 3.455271448935617]

[53 41 55 20 45 43 34 97 34 55 29 52 9 29 90 94 78 29 30 91 78 49 33 28 98 57 63 77 75 52 67 61 85 70 77 14 77 14 45 32 56 87 99 87 96 28 67 59 8 21 4 29 54 81 42 37 66 8 5 99 14 52 97 36 65 93 58 32 61 39 23 91 3 92 69 6 20 76 18 52 3 71 92 27 19 35 57 29 71 36 6 14 42 53 85 90 70 66 5 53 62 81 95 49 30 55 28 40 92 74 56 20 18 50 14 60 100 62 18 26 1 74 57 64 34 40 25 77 100 100]
